data;

param num_top:=6;

#nodes and edges of the physical network
param n := 10;

set E := (1,2) (1,3) (1,7) (2,4) (2,7) (3,5) (4,8) (5,6) (5,7) (6,7) (6,9) (7,8) (7,9) (8,10) (9,10) ;

#nodes and edges of the virtual networks
set Nl[1] := 2 9 3 8 ;
set Nl[2] := 7 5 2 6 ;
set Nl[3] := 2 7 4 8 ;
set Nl[4] := 10 2 7 9 ;
set Nl[5] := 2 4 10 7 ;
set Nl[6] := 2 6 4 8 ;

set El[1] := (2,9) (3,9) (3,8) (2,8) (8,9) (2,3) ;
set El[2] := (5,7) (2,5) (2,6) (6,7) (2,7) (5,6) ;
set El[3] := (2,7) (4,7) (4,8) (2,8) (2,4) (7,8) ;
set El[4] := (2,10) (2,7) (7,9) (9,10) (2,9) (7,10) ;
set El[5] := (2,4) (4,10) (7,10) (2,7) (2,10) (4,7) ;
set El[6] := (2,6) (4,6) (4,8) (2,8) (2,4) (6,8) ;
